networks/zoo_40_76/zoo_40_76.sol
<?xml version = "1.0" encoding="UTF-8" standalone="yes"?>
<CPLEXSolution version="1.2">
 <header
   problemName="networks/zoo_40_76/zoo_40_76.lp"
   solutionName="incumbent"
   solutionIndex="-1"
   objectiveValue="21"
   solutionTypeValue="3"
   solutionTypeString="primal"
   solutionStatusValue="101"
   solutionStatusString="integer optimal solution"
   solutionMethodString="mip"
   primalFeasible="1"
   dualFeasible="1"
   MIPNodes="0"
   MIPIterations="652"
   writeLevel="3"/>
 <quality
   epInt="1.0000000000000001e-05"
   epRHS="9.9999999999999995e-07"
   maxIntInfeas="0"
   maxPrimalInfeas="0"
   maxX="2"
   maxSlack="8"/>
 <variables>
  <variable name="Y(2,1)" index="30" value="1"/>
  <variable name="Y(7,14)" index="191" value="1"/>
  <variable name="Y(12,3)" index="332" value="1"/>
  <variable name="Y(15,2)" index="421" value="1"/>
  <variable name="Y(18,7)" index="516" value="1"/>
  <variable name="Y(19,8)" index="547" value="1"/>
  <variable name="Y(20,10)" index="578" value="1"/>
  <variable name="Y(21,11)" index="609" value="1"/>
  <variable name="Y(24,17)" index="704" value="1"/>
  <variable name="Y(26,20)" index="767" value="1"/>
  <variable name="Y(29,7)" index="846" value="1"/>
  <variable name="Y(30,5)" index="874" value="1"/>
  <variable name="Y(32,10)" index="938" value="1"/>
  <variable name="Y(34,5)" index="994" value="1"/>
  <variable name="Y(40,12)" index="1180" value="1"/>
  <variable name="Y(43,4)" index="1263" value="1"/>
  <variable name="Y(49,14)" index="1451" value="1"/>
  <variable name="Y(53,14)" index="1571" value="1"/>
  <variable name="Y(58,16)" index="1723" value="1"/>
  <variable name="Y(62,20)" index="1847" value="1"/>
  <variable name="Y(64,19)" index="1906" value="1"/>
  <variable name="X(1,3,2)" index="2281" value="1"/>
  <variable name="X(2,20,7)" index="2362" value="1"/>
  <variable name="X(2,22,15)" index="2446" value="1"/>
  <variable name="X(3,4,43)" index="2550" value="1"/>
  <variable name="X(3,5,34)" index="2617" value="1"/>
  <variable name="X(3,11,21)" index="2680" value="1"/>
  <variable name="X(3,14,24)" index="2759" value="1"/>
  <variable name="X(3,23,12)" index="2823" value="1"/>
  <variable name="X(4,3,12)" index="2899" value="1"/>
  <variable name="X(4,24,43)" index="3006" value="1"/>
  <variable name="X(5,3,30)" index="3069" value="1"/>
  <variable name="X(5,8,19)" index="3134" value="1"/>
  <variable name="X(5,20,20)" index="3211" value="1"/>
  <variable name="X(5,25,34)" index="3301" value="1"/>
  <variable name="X(6,20,26)" index="3369" value="1"/>
  <variable name="X(7,20,29)" index="3448" value="1"/>
  <variable name="X(7,27,18)" index="3513" value="1"/>
  <variable name="X(8,5,30)" index="3601" value="1"/>
  <variable name="X(8,28,19)" index="3666" value="1"/>
  <variable name="X(10,20,32)" index="3755" value="1"/>
  <variable name="X(10,30,20)" index="3819" value="1"/>
  <variable name="X(11,3,34)" index="3909" value="1"/>
  <variable name="X(11,31,21)" index="3972" value="1"/>
  <variable name="X(12,3,40)" index="4067" value="1"/>
  <variable name="X(14,3,49)" index="4152" value="1"/>
  <variable name="X(14,16,58)" index="4237" value="1"/>
  <variable name="X(14,17,24)" index="4279" value="1"/>
  <variable name="X(14,20,53)" index="4384" value="1"/>
  <variable name="X(14,34,7)" index="4414" value="1"/>
  <variable name="X(15,14,49)" index="4532" value="1"/>
  <variable name="X(16,14,53)" index="4612" value="1"/>
  <variable name="X(16,36,58)" index="4693" value="1"/>
  <variable name="X(17,14,58)" index="4769" value="1"/>
  <variable name="X(17,37,24)" index="4811" value="1"/>
  <variable name="X(18,20,62)" index="4925" value="1"/>
  <variable name="X(19,20,64)" index="5003" value="1"/>
  <variable name="X(20,2,15)" index="5030" value="1"/>
  <variable name="X(20,5,26)" index="5117" value="1"/>
  <variable name="X(20,7,18)" index="5185" value="1"/>
  <variable name="X(20,10,20)" index="5263" value="1"/>
  <variable name="X(20,14,7)" index="5326" value="1"/>
  <variable name="X(20,40,62)" index="5457" value="1"/>
  <variable name="C(7,20)" index="5492" value="1"/>
  <variable name="C(7,14)" index="5493" value="2"/>
  <variable name="C(12,3)" index="5504" value="1"/>
  <variable name="C(15,2)" index="5514" value="1"/>
  <variable name="C(18,7)" index="5522" value="1"/>
  <variable name="C(19,8)" index="5524" value="1"/>
  <variable name="C(20,20)" index="5526" value="1"/>
  <variable name="C(20,10)" index="5527" value="2"/>
  <variable name="C(21,11)" index="5530" value="1"/>
  <variable name="C(24,14)" index="5540" value="1"/>
  <variable name="C(24,17)" index="5541" value="2"/>
  <variable name="C(26,20)" index="5545" value="1"/>
  <variable name="C(30,5)" index="5556" value="1"/>
  <variable name="C(34,3)" index="5566" value="1"/>
  <variable name="C(34,5)" index="5567" value="2"/>
  <variable name="C(43,4)" index="5594" value="1"/>
  <variable name="C(49,14)" index="5609" value="1"/>
  <variable name="C(53,14)" index="5621" value="1"/>
  <variable name="C(58,14)" index="5638" value="1"/>
  <variable name="C(58,16)" index="5639" value="2"/>
  <variable name="C(62,20)" index="5651" value="1"/>
 </variables>
</CPLEXSolution>
